feasible solution found by trivial heuristic after 0.1 seconds, objective value 0.000000e+00
presolving:
(round 1, fast)       6383 del vars, 11659 del conss, 0 add conss, 4904 chg bounds, 3184 chg sides, 0 chg coeffs, 0 upgd conss, 0 impls, 1351 clqs
(round 2, fast)       6511 del vars, 11659 del conss, 0 add conss, 4904 chg bounds, 3184 chg sides, 0 chg coeffs, 0 upgd conss, 0 impls, 1351 clqs
   (0.1s) running MILP presolver
   (0.1s) MILP presolver found nothing
(round 3, exhaustive) 6511 del vars, 11659 del conss, 0 add conss, 4904 chg bounds, 3184 chg sides, 0 chg coeffs, 1351 upgd conss, 0 impls, 1351 clqs
   (0.2s) probing: 51/128 (39.8%) - 0 fixings, 0 aggregations, 0 implications, 0 bound changes
   (0.2s) probing aborted: 50/50 successive totally useless probings
   (0.2s) symmetry computation started: requiring (bin +, int -, cont +), (fixed: bin -, int +, cont -)
   (0.2s) no symmetry present
presolving (4 rounds: 4 fast, 2 medium, 2 exhaustive):
 6511 deleted vars, 11659 deleted constraints, 0 added constraints, 4904 tightened bounds, 0 added holes, 3184 changed sides, 0 changed coefficients
 0 implications, 1351 cliques
presolved problem has 128 variables (128 bin, 0 int, 0 impl, 0 cont) and 1351 constraints
   1351 constraints of type <setppc>
Presolving Time: 0.11

 time | node  | left  |LP iter|LP it/n|mem/heur|mdpt |vars |cons |rows |cuts |sepa|confs|strbr|  dualbound   | primalbound  |  gap   | compl. 
t 0.2s|     1 |     0 |     0 |     - | trivial|   0 | 128 |1351 |   0 |   0 |  0 |   0 |   0 | 2.687608e+08 | 2.687068e+08 |   0.02%| unknown
p 0.2s|     1 |     0 |     0 |     - |  clique|   0 | 128 |1351 |1351 |   0 |  0 |   0 |   0 | 2.687608e+08 | 2.687145e+08 |   0.02%| unknown
  0.2s|     1 |     0 |   598 |     - |    36M |   0 | 128 |1351 |1351 |   0 |  0 |   0 |   0 | 2.687206e+08 | 2.687145e+08 |   0.00%| unknown
  0.3s|     1 |     0 |   701 |     - |    38M |   0 | 128 |1351 |1353 |   2 |  1 |   0 |   0 | 2.687205e+08 | 2.687145e+08 |   0.00%| unknown
  0.3s|     1 |     0 |   797 |     - |    39M |   0 | 128 |1351 |1354 |   3 |  2 |   0 |   0 | 2.687205e+08 | 2.687145e+08 |   0.00%| unknown
  0.4s|     1 |     0 |   907 |     - |    41M |   0 | 128 |1351 |1355 |   4 |  3 |   0 |   0 | 2.687205e+08 | 2.687145e+08 |   0.00%| unknown
  0.4s|     1 |     0 |   983 |     - |    41M |   0 | 128 |1351 |1356 |   5 |  4 |   0 |   0 | 2.687205e+08 | 2.687145e+08 |   0.00%| unknown
  0.4s|     1 |     0 |  1077 |     - |    43M |   0 | 128 |1351 |1357 |   6 |  5 |   0 |   0 | 2.687204e+08 | 2.687145e+08 |   0.00%| unknown
  0.5s|     1 |     0 |  1183 |     - |    44M |   0 | 128 |1351 |1359 |   8 |  6 |   0 |   0 | 2.687204e+08 | 2.687145e+08 |   0.00%| unknown
  0.6s|     1 |     0 |  1283 |     - |    44M |   0 | 128 |1351 |1360 |   9 |  7 |   0 |   0 | 2.687204e+08 | 2.687145e+08 |   0.00%| unknown
  0.6s|     1 |     0 |  1409 |     - |    45M |   0 | 128 |1351 |1362 |  11 |  8 |   0 |   0 | 2.687204e+08 | 2.687145e+08 |   0.00%| unknown
  0.7s|     1 |     0 |  1485 |     - |    46M |   0 | 128 |1351 |1364 |  13 |  9 |   0 |   0 | 2.687204e+08 | 2.687145e+08 |   0.00%| unknown
  0.7s|     1 |     0 |  1614 |     - |    49M |   0 | 128 |1351 |1365 |  14 | 10 |   0 |   0 | 2.687204e+08 | 2.687145e+08 |   0.00%| unknown
  0.8s|     1 |     0 |  1660 |     - |    49M |   0 | 128 |1351 |1366 |  15 | 11 |   0 |   0 | 2.687204e+08 | 2.687145e+08 |   0.00%| unknown
d 0.8s|     1 |     0 |  2374 |     - |farkasdi|   0 | 128 |1351 |1366 |   0 | 13 |   0 |   0 | 2.687204e+08 | 2.687147e+08 |   0.00%| unknown
 time | node  | left  |LP iter|LP it/n|mem/heur|mdpt |vars |cons |rows |cuts |sepa|confs|strbr|  dualbound   | primalbound  |  gap   | compl. 
d 0.8s|     1 |     0 |  2375 |     - |farkasdi|   0 | 128 |1351 |1366 |   0 | 13 |   0 |   0 | 2.687204e+08 | 2.687156e+08 |   0.00%| unknown
  0.9s|     1 |     0 |  2375 |     - |    49M |   0 | 128 |1351 |1366 |  15 | 13 |   0 |   0 | 2.687204e+08 | 2.687156e+08 |   0.00%| unknown
  0.9s|     1 |     0 |  2403 |     - |    49M |   0 | 128 |1351 |1367 |  16 | 14 |   0 |   0 | 2.687204e+08 | 2.687156e+08 |   0.00%| unknown
  0.9s|     1 |     0 |  2412 |     - |    49M |   0 | 128 |1351 |1368 |  17 | 15 |   0 |   0 | 2.687204e+08 | 2.687156e+08 |   0.00%| unknown
  2.0s|     1 |     2 |  2412 |     - |    49M |   0 | 128 |1351 |1368 |  17 | 15 |   0 |  23 | 2.687202e+08 | 2.687156e+08 |   0.00%| unknown
* 3.3s|     5 |     4 |  3258 | 393.2 |strongbr|   4 | 128 |1351 |1363 |  17 |  3 |   0 | 119 | 2.687202e+08 | 2.687157e+08 |   0.00%| unknown
* 4.6s|    11 |     6 |  4159 | 247.4 |strongbr|   5 | 128 |1351 |1363 |  17 |  1 |   0 | 193 | 2.687201e+08 | 2.687161e+08 |   0.00%|   4.99%
* 6.8s|    38 |     9 |  6538 | 131.2 |    LP  |   9 | 128 |1359 |1363 |  17 |  1 |   8 | 457 | 2.687200e+08 | 2.687163e+08 |   0.00%|  15.99%
  9.1s|   100 |    19 | 12327 | 107.5 |    51M |  12 | 128 |1363 |1363 |  37 |  1 |  12 | 537 | 2.687196e+08 | 2.687163e+08 |   0.00%|  21.44%
 11.5s|   200 |    35 | 21331 |  98.7 |    55M |  15 | 128 |1363 |1363 |  92 |  0 |  12 | 553 | 2.687193e+08 | 2.687163e+08 |   0.00%|  27.26%
 13.3s|   300 |    41 | 27599 |  86.7 |    58M |  19 | 128 |1363 |1371 | 136 |  1 |  12 | 554 | 2.687192e+08 | 2.687163e+08 |   0.00%|  30.06%
 15.5s|   400 |    45 | 35227 |  84.1 |    60M |  20 | 128 |1365 |1371 | 199 |  6 |  14 | 555 | 2.687191e+08 | 2.687163e+08 |   0.00%|  32.10%
 16.7s|   500 |    55 | 40855 |  78.5 |    60M |  20 | 128 |1366 |1371 | 214 |  2 |  15 | 555 | 2.687189e+08 | 2.687163e+08 |   0.00%|  35.64%
*17.4s|   544 |    59 | 43559 |  77.1 |    LP  |  21 | 128 |1366 |1371 | 225 |  1 |  15 | 557 | 2.687188e+08 | 2.687163e+08 |   0.00%|  36.13%
 17.6s|   600 |    61 | 46185 |  74.3 |    60M |  23 | 128 |1366 |1371 | 227 |  1 |  15 | 557 | 2.687187e+08 | 2.687163e+08 |   0.00%|  36.53%
 time | node  | left  |LP iter|LP it/n|mem/heur|mdpt |vars |cons |rows |cuts |sepa|confs|strbr|  dualbound   | primalbound  |  gap   | compl. 
 18.8s|   700 |    85 | 53151 |  73.6 |    62M |  23 | 128 |1369 |1368 | 258 |  1 |  18 | 559 | 2.687186e+08 | 2.687163e+08 |   0.00%|  40.28%
 20.2s|   800 |   113 | 62100 |  75.6 |    62M |  23 | 128 |1369 |1368 | 299 |  0 |  18 | 569 | 2.687184e+08 | 2.687163e+08 |   0.00%|  43.91%
 22.1s|   900 |   131 | 69695 |  75.7 |    64M |  24 | 128 |1370 |1368 | 342 |  1 |  19 | 575 | 2.687182e+08 | 2.687163e+08 |   0.00%|  47.71%
 23.6s|  1000 |   151 | 76414 |  74.8 |    65M |  25 | 128 |1370 |1371 | 367 |  0 |  19 | 595 | 2.687181e+08 | 2.687163e+08 |   0.00%|  50.23%
 27.0s|  1100 |   169 | 85702 |  76.4 |    65M |  26 | 128 |1372 |1375 | 438 |  1 |  21 | 640 | 2.687180e+08 | 2.687163e+08 |   0.00%|  52.95%
*28.3s|  1185 |   143 | 91182 |  75.6 |    LP  |  26 | 128 |1372 |1374 | 461 |  1 |  21 | 671 | 2.687180e+08 | 2.687165e+08 |   0.00%|  56.04%
 28.5s|  1200 |   144 | 92567 |  75.8 |    65M |  26 | 128 |1372 |1363 | 472 |  0 |  21 | 674 | 2.687180e+08 | 2.687165e+08 |   0.00%|  56.72%
 29.5s|  1300 |   152 | 99303 |  75.1 |    67M |  27 | 128 |1375 |1370 | 486 |  0 |  24 | 693 | 2.687178e+08 | 2.687165e+08 |   0.00%|  60.19%
 30.7s|  1400 |   152 |104859 |  73.7 |    67M |  27 | 128 |1377 |1367 | 517 |  0 |  26 | 710 | 2.687178e+08 | 2.687165e+08 |   0.00%|  63.62%
 31.5s|  1500 |   150 |109924 |  72.2 |    67M |  28 | 128 |1377 |1370 | 529 |  0 |  26 | 729 | 2.687178e+08 | 2.687165e+08 |   0.00%|  66.25%
 32.2s|  1600 |   152 |114948 |  70.8 |    67M |  28 | 128 |1378 |1371 | 541 |  0 |  27 | 733 | 2.687177e+08 | 2.687165e+08 |   0.00%|  68.34%
 33.2s|  1700 |   160 |121072 |  70.3 |    67M |  28 | 128 |1379 |1369 | 554 |  0 |  28 | 739 | 2.687176e+08 | 2.687165e+08 |   0.00%|  70.56%
 33.8s|  1800 |   164 |126462 |  69.4 |    68M |  28 | 128 |1380 |1368 | 559 |  1 |  29 | 740 | 2.687176e+08 | 2.687165e+08 |   0.00%|  72.54%
 35.0s|  1900 |   164 |131488 |  68.4 |    68M |  31 | 128 |1381 |1369 | 587 |  0 |  30 | 743 | 2.687175e+08 | 2.687165e+08 |   0.00%|  74.69%
 36.4s|  2000 |   158 |136446 |  67.4 |    68M |  31 | 128 |1382 |1371 | 619 |  1 |  31 | 749 | 2.687175e+08 | 2.687165e+08 |   0.00%|  77.34%
 time | node  | left  |LP iter|LP it/n|mem/heur|mdpt |vars |cons |rows |cuts |sepa|confs|strbr|  dualbound   | primalbound  |  gap   | compl. 
 36.9s|  2100 |   148 |140165 |  66.0 |    68M |  31 | 128 |1382 |1372 | 628 |  1 |  31 | 752 | 2.687175e+08 | 2.687165e+08 |   0.00%|  79.21%
 37.5s|  2200 |   138 |144632 |  65.0 |    68M |  31 | 128 |1382 |1375 | 636 |  2 |  31 | 752 | 2.687175e+08 | 2.687165e+08 |   0.00%|  81.35%
 38.4s|  2300 |   128 |148675 |  63.9 |    68M |  33 | 128 |1382 |1374 | 649 |  0 |  31 | 757 | 2.687174e+08 | 2.687165e+08 |   0.00%|  83.25%
 38.8s|  2400 |   116 |152674 |  62.9 |    68M |  33 | 128 |1382 |1366 | 649 |  0 |  31 | 761 | 2.687174e+08 | 2.687165e+08 |   0.00%|  85.44%
 39.3s|  2500 |   106 |156691 |  62.0 |    68M |  33 | 128 |1382 |1372 | 649 |  0 |  31 | 775 | 2.687174e+08 | 2.687165e+08 |   0.00%|  87.62%
 40.0s|  2600 |    88 |160070 |  60.9 |    68M |  34 | 128 |1382 |1379 | 661 |  1 |  31 | 775 | 2.687172e+08 | 2.687165e+08 |   0.00%|  90.21%
 40.5s|  2700 |    66 |164771 |  60.4 |    68M |  36 | 128 |1382 |1372 | 664 |  0 |  35 | 796 | 2.687171e+08 | 2.687165e+08 |   0.00%|  92.91%
 41.1s|  2800 |    16 |169083 |  59.8 |    68M |  36 | 128 |1388 |1383 | 666 |  0 |  51 | 849 | 2.687169e+08 | 2.687165e+08 |   0.00%|  97.82%

SCIP Status        : problem is solved [optimal solution found]
Solving Time (sec) : 41.12
Solving Nodes      : 2818
Primal Bound       : +2.68716498567655e+08 (423 solutions)
Dual Bound         : +2.68716498567655e+08
Gap                : 0.00 %
Solve Status: optimal
Solve Time: 41.13 seconds
